\ Equation counts
\     Total        E        G        L        N        X        C        B
\	199	199	0	0
\
\ Variable counts
\                  x        b        i      s1s      s2s       sc       si
\     Total     cont   binary  integer     sos1     sos2    scont     sint
\	30	30

\ Nonzero counts
\     Total    const       NL      DLL
\
\
Minimize
 obj: [ - 10.0 x_1 * x_1 - 3.5 x_1 * x_2 - 3.0 x_1 * x_3 - 8.0 x_1 * x_4 - 8.0 x_1 * x_5 - 21.5 x_1 * x_7 + 18.0 x_1 * x_8 + 10.5 x_1 * x_9 - 5.5 x_1 * x_10 + 21.5 x_1 * x_14 - 10.5 x_1 * x_16 + 17.0 x_1 * x_17 - 1.5 x_1 * x_20 + 24.0 x_1 * x_22 - 21.5 x_1 * x_23 - 5.0 x_1 * x_24 - 8.0 x_1 * x_27 + 5.0 x_1 * x_28 - 3.5 x_2 * x_1 + 17.5 x_2 * x_2 + 10.0 x_2 * x_4 - 17.5 x_2 * x_6 + 7.5 x_2 * x_7 + 13.0 x_2 * x_8 + 23.5 x_2 * x_9 + 11.5 x_2 * x_10 - 11.5 x_2 * x_12 + 8.5 x_2 * x_15 - 5.5 x_2 * x_17 - 18.0 x_2 * x_18 - 13.0 x_2 * x_19 + 10.5 x_2 * x_20 - 20.5 x_2 * x_22 - 22.0 x_2 * x_23 + 6.5 x_2 * x_24 - 12.5 x_2 * x_26 - 3.0 x_3 * x_1 + 5.5 x_3 * x_3 - 1.5 x_3 * x_6 - 14.5 x_3 * x_7 + 4.0 x_3 * x_9 + 21.0 x_3 * x_10 + 11.0 x_3 * x_11 - 22.0 x_3 * x_12 - 14.0 x_3 * x_14 - 13.0 x_3 * x_15 + 19.0 x_3 * x_16 + 16.0 x_3 * x_18 - 24.0 x_3 * x_20 + 12.0 x_3 * x_21 + 22.5 x_3 * x_22 - 20.0 x_3 * x_23 + 14.5 x_3 * x_24 - 20.0 x_3 * x_25 + 19.5 x_3 * x_27 - 10.0 x_3 * x_28 - 5.5 x_3 * x_30 - 8.0 x_4 * x_1 + 10.0 x_4 * x_2 + 4.0 x_4 * x_7 + 0.5 x_4 * x_8 - 7.0 x_4 * x_9 + 14.0 x_4 * x_11 + 20.0 x_4 * x_12 + 20.5 x_4 * x_14 - 16.5 x_4 * x_15 + 21.0 x_4 * x_16 + 22.5 x_4 * x_22 + 17.0 x_4 * x_24 + 17.5 x_4 * x_27 + 14.5 x_4 * x_30 - 8.0 x_5 * x_1 + 14.5 x_5 * x_5 + 20.0 x_5 * x_7 + 4.5 x_5 * x_8 - 24.5 x_5 * x_11 - 13.5 x_5 * x_13 + 20.0 x_5 * x_14 + 10.0 x_5 * x_16 - 21.5 x_5 * x_18 + 23.0 x_5 * x_19 + 12.5 x_5 * x_20 - 11.0 x_5 * x_21 + 6.0 x_5 * x_22 + 14.0 x_5 * x_27 + 13.0 x_5 * x_29 + 5.5 x_5 * x_30 - 17.5 x_6 * x_2 - 1.5 x_6 * x_3 + 15.5 x_6 * x_7 + 9.0 x_6 * x_10 - 7.5 x_6 * x_11 - 4.0 x_6 * x_12 + 1.0 x_6 * x_13 - 6.0 x_6 * x_15 + 17.0 x_6 * x_16 + 1.0 x_6 * x_17 - 6.5 x_6 * x_19 + 4.5 x_6 * x_21 + 12.5 x_6 * x_22 + 3.5 x_6 * x_23 - 19.0 x_6 * x_24 + 0.5 x_6 * x_26 - 7.0 x_6 * x_27 + 9.5 x_6 * x_28 + 24.5 x_6 * x_30 - 21.5 x_7 * x_1 + 7.5 x_7 * x_2 - 14.5 x_7 * x_3 + 4.0 x_7 * x_4 + 20.0 x_7 * x_5 + 15.5 x_7 * x_6 + 24.5 x_7 * x_7 + 8.5 x_7 * x_8 + 17.5 x_7 * x_10 + 24.5 x_7 * x_11 + 13.0 x_7 * x_12 - 9.0 x_7 * x_14 + 24.5 x_7 * x_18 - 20.5 x_7 * x_19 - 19.0 x_7 * x_20 + 23.0 x_7 * x_23 + 3.0 x_7 * x_25 + 0.5 x_7 * x_26 + 3.0 x_7 * x_28 - 17.0 x_7 * x_29 + 14.5 x_7 * x_30 + 18.0 x_8 * x_1 + 13.0 x_8 * x_2 + 0.5 x_8 * x_4 + 4.5 x_8 * x_5 + 8.5 x_8 * x_7 - 6.0 x_8 * x_12 - 10.0 x_8 * x_15 + 7.5 x_8 * x_16 - 17.5 x_8 * x_20 - 22.0 x_8 * x_27 + 8.5 x_8 * x_28 - 22.5 x_8 * x_29 + 3.0 x_8 * x_30 + 10.5 x_9 * x_1 + 23.5 x_9 * x_2 + 4.0 x_9 * x_3 - 7.0 x_9 * x_4 - 21.5 x_9 * x_10 - 6.0 x_9 * x_12 - 18.5 x_9 * x_18 - 7.0 x_9 * x_19 + 9.0 x_9 * x_21 - 5.5 x_9 * x_22 + 2.0 x_9 * x_23 - 7.5 x_9 * x_28 - 5.5 x_10 * x_1 + 11.5 x_10 * x_2 + 21.0 x_10 * x_3 + 9.0 x_10 * x_6 + 17.5 x_10 * x_7 - 21.5 x_10 * x_9 + 5.0 x_10 * x_11 + 8.0 x_10 * x_12 + 23.5 x_10 * x_13 + 10.5 x_10 * x_14 - 18.5 x_10 * x_15 + 10.0 x_10 * x_16 + 0.5 x_10 * x_21 - 8.5 x_10 * x_24 - 7.5 x_10 * x_25 - 23.0 x_10 * x_26 + 21.0 x_10 * x_27 + 8.5 x_10 * x_28 + 11.0 x_11 * x_3 + 14.0 x_11 * x_4 - 24.5 x_11 * x_5 - 7.5 x_11 * x_6 + 24.5 x_11 * x_7 + 5.0 x_11 * x_10 - 19.0 x_11 * x_16 - 11.0 x_11 * x_17 + 17.5 x_11 * x_18 + 22.5 x_11 * x_21 + 0.5 x_11 * x_22 + 18.5 x_11 * x_24 - 7.0 x_11 * x_25 + 21.5 x_11 * x_26 - 9.5 x_11 * x_30 - 11.5 x_12 * x_2 - 22.0 x_12 * x_3 + 20.0 x_12 * x_4 - 4.0 x_12 * x_6 + 13.0 x_12 * x_7 - 6.0 x_12 * x_8 - 6.0 x_12 * x_9 + 8.0 x_12 * x_10 - 10.0 x_12 * x_13 - 22.5 x_12 * x_14 + 12.0 x_12 * x_16 + 23.5 x_12 * x_18 - 13.5 x_12 * x_20 - 16.5 x_12 * x_22 + 0.5 x_12 * x_23 + 13.0 x_12 * x_25 - 5.5 x_12 * x_27 + 24.0 x_12 * x_30 - 13.5 x_13 * x_5 + 1.0 x_13 * x_6 + 23.5 x_13 * x_10 - 10.0 x_13 * x_12 + 17.0 x_13 * x_14 - 13.5 x_13 * x_15 + 5.5 x_13 * x_16 - 21.5 x_13 * x_18 - 20.5 x_13 * x_20 + 6.5 x_13 * x_21 - 6.5 x_13 * x_24 + 3.0 x_13 * x_26 + 21.5 x_14 * x_1 - 14.0 x_14 * x_3 + 20.5 x_14 * x_4 + 20.0 x_14 * x_5 - 9.0 x_14 * x_7 + 10.5 x_14 * x_10 - 22.5 x_14 * x_12 + 17.0 x_14 * x_13 + 11.5 x_14 * x_14 + 8.0 x_14 * x_15 + 1.5 x_14 * x_17 + 24.0 x_14 * x_19 + 10.5 x_14 * x_20 - 2.5 x_14 * x_22 - 4.5 x_14 * x_23 - 22.0 x_14 * x_24 - 19.5 x_14 * x_25 + 7.0 x_14 * x_27 + 10.5 x_14 * x_28 - 11.5 x_14 * x_30 + 8.5 x_15 * x_2 - 13.0 x_15 * x_3 - 16.5 x_15 * x_4 - 6.0 x_15 * x_6 - 10.0 x_15 * x_8 - 18.5 x_15 * x_10 - 13.5 x_15 * x_13 + 8.0 x_15 * x_14 + 4.5 x_15 * x_15 - 19.5 x_15 * x_18 + 18.5 x_15 * x_19 + 4.0 x_15 * x_22 + 1.5 x_15 * x_23 + 9.0 x_15 * x_24 + 22.5 x_15 * x_26 - 5.0 x_15 * x_27 + 14.5 x_15 * x_29 - 10.5 x_16 * x_1 + 19.0 x_16 * x_3 + 21.0 x_16 * x_4 + 10.0 x_16 * x_5 + 17.0 x_16 * x_6 + 7.5 x_16 * x_8 + 10.0 x_16 * x_10 - 19.0 x_16 * x_11 + 12.0 x_16 * x_12 + 5.5 x_16 * x_13 - 17.0 x_16 * x_17 + 15.5 x_16 * x_18 + 18.5 x_16 * x_19 + 24.5 x_16 * x_20 - 5.5 x_16 * x_21 - 6.0 x_16 * x_22 + 9.0 x_16 * x_25 + 22.0 x_16 * x_27 + 13.5 x_16 * x_28 + 17.0 x_17 * x_1 - 5.5 x_17 * x_2 + 1.0 x_17 * x_6 - 11.0 x_17 * x_11 + 1.5 x_17 * x_14 - 17.0 x_17 * x_16 - 5.5 x_17 * x_17 - 13.5 x_17 * x_19 - 4.5 x_17 * x_22 - 19.0 x_17 * x_24 + 5.0 x_17 * x_25 + 18.5 x_17 * x_26 - 12.5 x_17 * x_27 - 20.5 x_17 * x_28 - 4.0 x_17 * x_29 + 0.5 x_17 * x_30 - 18.0 x_18 * x_2 + 16.0 x_18 * x_3 - 21.5 x_18 * x_5 + 24.5 x_18 * x_7 - 18.5 x_18 * x_9 + 17.5 x_18 * x_11 + 23.5 x_18 * x_12 - 21.5 x_18 * x_13 - 19.5 x_18 * x_15 + 15.5 x_18 * x_16 + 24.5 x_18 * x_23 + 10.5 x_18 * x_24 - 14.0 x_18 * x_26 - 0.5 x_18 * x_28 + 7.0 x_18 * x_29 - 4.5 x_18 * x_30 - 13.0 x_19 * x_2 + 23.0 x_19 * x_5 - 6.5 x_19 * x_6 - 20.5 x_19 * x_7 - 7.0 x_19 * x_9 + 24.0 x_19 * x_14 + 18.5 x_19 * x_15 + 18.5 x_19 * x_16 - 13.5 x_19 * x_17 - 5.0 x_19 * x_20 - 20.5 x_19 * x_22 + 10.0 x_19 * x_25 - 1.5 x_19 * x_27 + 24.5 x_19 * x_29 - 20.0 x_19 * x_30 - 1.5 x_20 * x_1 + 10.5 x_20 * x_2 - 24.0 x_20 * x_3 + 12.5 x_20 * x_5 - 19.0 x_20 * x_7 - 17.5 x_20 * x_8 - 13.5 x_20 * x_12 - 20.5 x_20 * x_13 + 10.5 x_20 * x_14 + 24.5 x_20 * x_16 - 5.0 x_20 * x_19 - 19.0 x_20 * x_22 + 13.0 x_20 * x_23 + 1.0 x_20 * x_24 + 20.5 x_20 * x_25 + 8.0 x_20 * x_26 - 21.0 x_20 * x_28 + 12.0 x_21 * x_3 - 11.0 x_21 * x_5 + 4.5 x_21 * x_6 + 9.0 x_21 * x_9 + 0.5 x_21 * x_10 + 22.5 x_21 * x_11 + 6.5 x_21 * x_13 - 5.5 x_21 * x_16 - 10.0 x_21 * x_23 + 17.0 x_21 * x_24 + 18.5 x_21 * x_25 - 12.0 x_21 * x_26 - 11.5 x_21 * x_27 - 1.0 x_21 * x_29 + 15.5 x_21 * x_30 + 24.0 x_22 * x_1 - 20.5 x_22 * x_2 + 22.5 x_22 * x_3 + 22.5 x_22 * x_4 + 6.0 x_22 * x_5 + 12.5 x_22 * x_6 - 5.5 x_22 * x_9 + 0.5 x_22 * x_11 - 16.5 x_22 * x_12 - 2.5 x_22 * x_14 + 4.0 x_22 * x_15 - 6.0 x_22 * x_16 - 4.5 x_22 * x_17 - 20.5 x_22 * x_19 - 19.0 x_22 * x_20 + 0.5 x_22 * x_22 - 8.0 x_22 * x_25 + 1.0 x_22 * x_27 + 3.0 x_22 * x_29 - 21.5 x_23 * x_1 - 22.0 x_23 * x_2 - 20.0 x_23 * x_3 + 3.5 x_23 * x_6 + 23.0 x_23 * x_7 + 2.0 x_23 * x_9 + 0.5 x_23 * x_12 - 4.5 x_23 * x_14 + 1.5 x_23 * x_15 + 24.5 x_23 * x_18 + 13.0 x_23 * x_20 - 10.0 x_23 * x_21 + 7.0 x_23 * x_23 - 14.5 x_23 * x_26 + 23.5 x_23 * x_27 - 20.0 x_23 * x_28 - 5.5 x_23 * x_30 - 5.0 x_24 * x_1 + 6.5 x_24 * x_2 + 14.5 x_24 * x_3 + 17.0 x_24 * x_4 - 19.0 x_24 * x_6 - 8.5 x_24 * x_10 + 18.5 x_24 * x_11 - 6.5 x_24 * x_13 - 22.0 x_24 * x_14 + 9.0 x_24 * x_15 - 19.0 x_24 * x_17 + 10.5 x_24 * x_18 + 1.0 x_24 * x_20 + 17.0 x_24 * x_21 - 20.0 x_24 * x_24 + 11.5 x_24 * x_25 + 12.5 x_24 * x_26 + 21.0 x_24 * x_27 - 18.5 x_24 * x_28 - 6.0 x_24 * x_29 + 8.0 x_24 * x_30 - 20.0 x_25 * x_3 + 3.0 x_25 * x_7 - 7.5 x_25 * x_10 - 7.0 x_25 * x_11 + 13.0 x_25 * x_12 - 19.5 x_25 * x_14 + 9.0 x_25 * x_16 + 5.0 x_25 * x_17 + 10.0 x_25 * x_19 + 20.5 x_25 * x_20 + 18.5 x_25 * x_21 - 8.0 x_25 * x_22 + 11.5 x_25 * x_24 + 4.0 x_25 * x_25 + 5.0 x_25 * x_26 - 20.5 x_25 * x_28 + 18.0 x_25 * x_30 - 12.5 x_26 * x_2 + 0.5 x_26 * x_6 + 0.5 x_26 * x_7 - 23.0 x_26 * x_10 + 21.5 x_26 * x_11 + 3.0 x_26 * x_13 + 22.5 x_26 * x_15 + 18.5 x_26 * x_17 - 14.0 x_26 * x_18 + 8.0 x_26 * x_20 - 12.0 x_26 * x_21 - 14.5 x_26 * x_23 + 12.5 x_26 * x_24 + 5.0 x_26 * x_25 - 9.5 x_26 * x_29 - 8.0 x_26 * x_30 - 8.0 x_27 * x_1 + 19.5 x_27 * x_3 + 17.5 x_27 * x_4 + 14.0 x_27 * x_5 - 7.0 x_27 * x_6 - 22.0 x_27 * x_8 + 21.0 x_27 * x_10 - 5.5 x_27 * x_12 + 7.0 x_27 * x_14 - 5.0 x_27 * x_15 + 22.0 x_27 * x_16 - 12.5 x_27 * x_17 - 1.5 x_27 * x_19 - 11.5 x_27 * x_21 + 1.0 x_27 * x_22 + 23.5 x_27 * x_23 + 21.0 x_27 * x_24 - 14.5 x_27 * x_28 - 7.0 x_27 * x_29 - 6.5 x_27 * x_30 + 5.0 x_28 * x_1 - 10.0 x_28 * x_3 + 9.5 x_28 * x_6 + 3.0 x_28 * x_7 + 8.5 x_28 * x_8 - 7.5 x_28 * x_9 + 8.5 x_28 * x_10 + 10.5 x_28 * x_14 + 13.5 x_28 * x_16 - 20.5 x_28 * x_17 - 0.5 x_28 * x_18 - 21.0 x_28 * x_20 - 20.0 x_28 * x_23 - 18.5 x_28 * x_24 - 20.5 x_28 * x_25 - 14.5 x_28 * x_27 + 1.0 x_28 * x_28 - 5.5 x_28 * x_29 + 5.0 x_28 * x_30 + 13.0 x_29 * x_5 - 17.0 x_29 * x_7 - 22.5 x_29 * x_8 + 14.5 x_29 * x_15 - 4.0 x_29 * x_17 + 7.0 x_29 * x_18 + 24.5 x_29 * x_19 - 1.0 x_29 * x_21 + 3.0 x_29 * x_22 - 6.0 x_29 * x_24 - 9.5 x_29 * x_26 - 7.0 x_29 * x_27 - 5.5 x_29 * x_28 + 8.5 x_29 * x_29 + 8.5 x_29 * x_30 - 5.5 x_30 * x_3 + 14.5 x_30 * x_4 + 5.5 x_30 * x_5 + 24.5 x_30 * x_6 + 14.5 x_30 * x_7 + 3.0 x_30 * x_8 - 9.5 x_30 * x_11 + 24.0 x_30 * x_12 - 11.5 x_30 * x_14 + 0.5 x_30 * x_17 - 4.5 x_30 * x_18 - 20.0 x_30 * x_19 + 15.5 x_30 * x_21 - 5.5 x_30 * x_23 + 8.0 x_30 * x_24 + 18.0 x_30 * x_25 - 8.0 x_30 * x_26 - 6.5 x_30 * x_27 + 5.0 x_30 * x_28 + 8.5 x_30 * x_29 ] - 13.0 x_1 + 27.0 x_2 + 0.0 x_3 - 36.0 x_4 + 34.0 x_5 + 43.0 x_6 + 0.0 x_7 + 0.0 x_8 + 0.0 x_9 + 0.0 x_10 + 0.0 x_11 + 11.0 x_12 - 31.0 x_13 - 36.0 x_14 + 0.0 x_15 + 0.0 x_16 + 0.0 x_17 + 0.0 x_18 + 0.0 x_19 - 3.0 x_20 - 28.0 x_21 + 43.0 x_22 - 15.0 x_23 - 34.0 x_24 + 0.0 x_25 - 3.0 x_26 - 22.0 x_27 + 0.0 x_28 + 29.0 x_29 + 0.0 x_30

Subject To
 e2: [  x_1 * x_2 ] = 0.0
 e3: [  x_1 * x_4 ] = 0.0
 e4: [  x_1 * x_5 ] = 0.0
 e5: [  x_1 * x_7 ] = 0.0
 e6: [  x_1 * x_9 ] = 0.0
 e7: [  x_1 * x_17 ] = 0.0
 e8: [  x_1 * x_20 ] = 0.0
 e9: [  x_1 * x_22 ] = 0.0
 e10: [  x_1 * x_23 ] = 0.0
 e11: [  x_2 * x_1 ] = 0.0
 e12: [  x_2 * x_7 ] = 0.0
 e13: [  x_2 * x_8 ] = 0.0
 e14: [  x_2 * x_9 ] = 0.0
 e15: [  x_2 * x_15 ] = 0.0
 e16: [  x_2 * x_18 ] = 0.0
 e17: [  x_2 * x_20 ] = 0.0
 e18: [  x_2 * x_23 ] = 0.0
 e19: [  x_3 * x_6 ] = 0.0
 e20: [  x_3 * x_10 ] = 0.0
 e21: [  x_3 * x_11 ] = 0.0
 e22: [  x_3 * x_14 ] = 0.0
 e23: [  x_3 * x_15 ] = 0.0
 e24: [  x_3 * x_30 ] = 0.0
 e25: [  x_4 * x_8 ] = 0.0
 e26: [  x_4 * x_14 ] = 0.0
 e27: [  x_4 * x_15 ] = 0.0
 e28: [  x_4 * x_16 ] = 0.0
 e29: [  x_4 * x_30 ] = 0.0
 e30: [  x_5 * x_1 ] = 0.0
 e31: [  x_5 * x_5 ] = 0.0
 e32: [  x_5 * x_7 ] = 0.0
 e33: [  x_5 * x_13 ] = 0.0
 e34: [  x_5 * x_14 ] = 0.0
 e35: [  x_5 * x_29 ] = 0.0
 e36: [  x_5 * x_30 ] = 0.0
 e37: [  x_6 * x_3 ] = 0.0
 e38: [  x_6 * x_16 ] = 0.0
 e39: [  x_7 * x_1 ] = 0.0
 e40: [  x_7 * x_4 ] = 0.0
 e41: [  x_7 * x_6 ] = 0.0
 e42: [  x_7 * x_8 ] = 0.0
 e43: [  x_7 * x_11 ] = 0.0
 e44: [  x_7 * x_12 ] = 0.0
 e45: [  x_7 * x_14 ] = 0.0
 e46: [  x_7 * x_18 ] = 0.0
 e47: [  x_7 * x_19 ] = 0.0
 e48: [  x_7 * x_20 ] = 0.0
 e49: [  x_7 * x_26 ] = 0.0
 e50: [  x_7 * x_28 ] = 0.0
 e51: [  x_7 * x_29 ] = 0.0
 e52: [  x_7 * x_30 ] = 0.0
 e53: [  x_8 * x_12 ] = 0.0
 e54: [  x_8 * x_16 ] = 0.0
 e55: [  x_8 * x_29 ] = 0.0
 e56: [  x_9 * x_3 ] = 0.0
 e57: [  x_9 * x_4 ] = 0.0
 e58: [  x_9 * x_18 ] = 0.0
 e59: [  x_9 * x_19 ] = 0.0
 e60: [  x_10 * x_3 ] = 0.0
 e61: [  x_10 * x_6 ] = 0.0
 e62: [  x_10 * x_7 ] = 0.0
 e63: [  x_10 * x_12 ] = 0.0
 e64: [  x_10 * x_14 ] = 0.0
 e65: [  x_10 * x_21 ] = 0.0
 e66: [  x_10 * x_24 ] = 0.0
 e67: [  x_10 * x_27 ] = 0.0
 e68: [  x_10 * x_28 ] = 0.0
 e69: [  x_11 * x_4 ] = 0.0
 e70: [  x_11 * x_5 ] = 0.0
 e71: [  x_12 * x_2 ] = 0.0
 e72: [  x_12 * x_6 ] = 0.0
 e73: [  x_12 * x_7 ] = 0.0
 e74: [  x_12 * x_8 ] = 0.0
 e75: [  x_12 * x_25 ] = 0.0
 e76: [  x_12 * x_27 ] = 0.0
 e77: [  x_13 * x_24 ] = 0.0
 e78: [  x_14 * x_3 ] = 0.0
 e79: [  x_14 * x_5 ] = 0.0
 e80: [  x_14 * x_13 ] = 0.0
 e81: [  x_14 * x_14 ] = 0.0
 e82: [  x_14 * x_19 ] = 0.0
 e83: [  x_14 * x_20 ] = 0.0
 e84: [  x_14 * x_22 ] = 0.0
 e85: [  x_14 * x_24 ] = 0.0
 e86: [  x_14 * x_30 ] = 0.0
 e87: [  x_15 * x_2 ] = 0.0
 e88: [  x_15 * x_8 ] = 0.0
 e89: [  x_15 * x_18 ] = 0.0
 e90: [  x_15 * x_26 ] = 0.0
 e91: [  x_16 * x_1 ] = 0.0
 e92: [  x_16 * x_6 ] = 0.0
 e93: [  x_16 * x_8 ] = 0.0
 e94: [  x_16 * x_12 ] = 0.0
 e95: [  x_16 * x_18 ] = 0.0
 e96: [  x_17 * x_1 ] = 0.0
 e97: [  x_17 * x_6 ] = 0.0
 e98: [  x_17 * x_11 ] = 0.0
 e99: [  x_17 * x_17 ] = 0.0
 e100: [  x_17 * x_26 ] = 0.0
 e101: [  x_17 * x_27 ] = 0.0
 e102: [  x_17 * x_28 ] = 0.0
 e103: [  x_18 * x_5 ] = 0.0
 e104: [  x_18 * x_7 ] = 0.0
 e105: [  x_18 * x_11 ] = 0.0
 e106: [  x_18 * x_13 ] = 0.0
 e107: [  x_18 * x_23 ] = 0.0
 e108: [  x_18 * x_24 ] = 0.0
 e109: [  x_18 * x_29 ] = 0.0
 e110: [  x_19 * x_2 ] = 0.0
 e111: [  x_19 * x_5 ] = 0.0
 e112: [  x_19 * x_6 ] = 0.0
 e113: [  x_19 * x_17 ] = 0.0
 e114: [  x_19 * x_20 ] = 0.0
 e115: [  x_20 * x_1 ] = 0.0
 e116: [  x_20 * x_7 ] = 0.0
 e117: [  x_20 * x_12 ] = 0.0
 e118: [  x_20 * x_16 ] = 0.0
 e119: [  x_20 * x_23 ] = 0.0
 e120: [  x_21 * x_3 ] = 0.0
 e121: [  x_21 * x_5 ] = 0.0
 e122: [  x_21 * x_10 ] = 0.0
 e123: [  x_21 * x_23 ] = 0.0
 e124: [  x_21 * x_26 ] = 0.0
 e125: [  x_21 * x_27 ] = 0.0
 e126: [  x_21 * x_29 ] = 0.0
 e127: [  x_22 * x_1 ] = 0.0
 e128: [  x_22 * x_2 ] = 0.0
 e129: [  x_22 * x_4 ] = 0.0
 e130: [  x_22 * x_16 ] = 0.0
 e131: [  x_22 * x_17 ] = 0.0
 e132: [  x_22 * x_22 ] = 0.0
 e133: [  x_22 * x_25 ] = 0.0
 e134: [  x_22 * x_29 ] = 0.0
 e135: [  x_23 * x_3 ] = 0.0
 e136: [  x_23 * x_6 ] = 0.0
 e137: [  x_23 * x_7 ] = 0.0
 e138: [  x_23 * x_12 ] = 0.0
 e139: [  x_23 * x_14 ] = 0.0
 e140: [  x_23 * x_18 ] = 0.0
 e141: [  x_23 * x_20 ] = 0.0
 e142: [  x_23 * x_21 ] = 0.0
 e143: [  x_23 * x_23 ] = 0.0
 e144: [  x_23 * x_26 ] = 0.0
 e145: [  x_24 * x_2 ] = 0.0
 e146: [  x_24 * x_10 ] = 0.0
 e147: [  x_24 * x_15 ] = 0.0
 e148: [  x_24 * x_18 ] = 0.0
 e149: [  x_24 * x_20 ] = 0.0
 e150: [  x_24 * x_24 ] = 0.0
 e151: [  x_24 * x_25 ] = 0.0
 e152: [  x_24 * x_26 ] = 0.0
 e153: [  x_24 * x_27 ] = 0.0
 e154: [  x_24 * x_29 ] = 0.0
 e155: [  x_25 * x_3 ] = 0.0
 e156: [  x_25 * x_7 ] = 0.0
 e157: [  x_25 * x_10 ] = 0.0
 e158: [  x_25 * x_12 ] = 0.0
 e159: [  x_25 * x_16 ] = 0.0
 e160: [  x_25 * x_17 ] = 0.0
 e161: [  x_25 * x_21 ] = 0.0
 e162: [  x_25 * x_24 ] = 0.0
 e163: [  x_25 * x_25 ] = 0.0
 e164: [  x_25 * x_26 ] = 0.0
 e165: [  x_25 * x_28 ] = 0.0
 e166: [  x_26 * x_13 ] = 0.0
 e167: [  x_27 * x_3 ] = 0.0
 e168: [  x_27 * x_5 ] = 0.0
 e169: [  x_27 * x_6 ] = 0.0
 e170: [  x_27 * x_12 ] = 0.0
 e171: [  x_27 * x_16 ] = 0.0
 e172: [  x_27 * x_17 ] = 0.0
 e173: [  x_27 * x_23 ] = 0.0
 e174: [  x_27 * x_24 ] = 0.0
 e175: [  x_27 * x_29 ] = 0.0
 e176: [  x_27 * x_30 ] = 0.0
 e177: [  x_28 * x_6 ] = 0.0
 e178: [  x_28 * x_7 ] = 0.0
 e179: [  x_28 * x_14 ] = 0.0
 e180: [  x_28 * x_18 ] = 0.0
 e181: [  x_28 * x_24 ] = 0.0
 e182: [  x_28 * x_28 ] = 0.0
 e183: [  x_28 * x_29 ] = 0.0
 e184: [  x_29 * x_5 ] = 0.0
 e185: [  x_29 * x_15 ] = 0.0
 e186: [  x_29 * x_18 ] = 0.0
 e187: [  x_29 * x_22 ] = 0.0
 e188: [  x_29 * x_24 ] = 0.0
 e189: [  x_29 * x_26 ] = 0.0
 e190: [  x_29 * x_27 ] = 0.0
 e191: [  x_29 * x_28 ] = 0.0
 e192: [  x_29 * x_29 ] = 0.0
 e193: [  x_30 * x_5 ] = 0.0
 e194: [  x_30 * x_11 ] = 0.0
 e195: [  x_30 * x_14 ] = 0.0
 e196: [  x_30 * x_17 ] = 0.0
 e197: [  x_30 * x_21 ] = 0.0
 e198: [  x_30 * x_26 ] = 0.0
 e199: [  x_30 * x_28 ] = 0.0
 e200: [  x_30 * x_29 ] = 0.0

Bounds
 x_1 <= 1.0
 x_2 <= 1.0
 x_3 <= 1.0
 x_4 <= 1.0
 x_5 <= 1.0
 x_6 <= 1.0
 x_7 <= 1.0
 x_8 <= 1.0
 x_9 <= 1.0
 x_10 <= 1.0
 x_11 <= 1.0
 x_12 <= 1.0
 x_13 <= 1.0
 x_14 <= 1.0
 x_15 <= 1.0
 x_16 <= 1.0
 x_17 <= 1.0
 x_18 <= 1.0
 x_19 <= 1.0
 x_20 <= 1.0
 x_21 <= 1.0
 x_22 <= 1.0
 x_23 <= 1.0
 x_24 <= 1.0
 x_25 <= 1.0
 x_26 <= 1.0
 x_27 <= 1.0
 x_28 <= 1.0
 x_29 <= 1.0
 x_30 <= 1.0

End